s td 37 13 50
b 1 6 39
b 2 26 28 41
b 3 8 11 38
b 4 14 35 43
b 5 20 21 32
b 6 20 21 23 33
b 7 2 44 45
b 8 9 46 49
b 9 9 35 49
b 10 4 12 27 42
b 11 3 22 24 29
b 12 18 34 36 47
b 13 24 37 40 48
b 14 1 7 10 20 22 23 24 25 28 34 39 48 50
b 15 4 10 20 22 23 24 25 28 34 39 44 48 50
b 16 2 20 24 44 48 50
b 17 4 10 12 20 22 23 24 25 28 34 39 44 48
b 18 3 4 12 20 22 23 24 25 28 34 39 44
b 19 3 4 12 17 20 23 24 25 28 34 39 44
b 20 3 4 12 13 17 20 23 25 28 34 39
b 21 3 4 5 12 13 17 20 23 25 28 39
b 22 5 9 12 13 17 20 23 25 28 39
b 23 5 9 13 17 20 23 28 39 43
b 24 5 9 13 17 20 23 30 43
b 25 13 20 21 23 30
b 26 9 35 39 43
b 27 4 12 13 17 23 25 34 42
b 28 12 17 23 31 34 42
b 29 12 24 25 40 48
b 30 4 10 26 28 39
b 31 1 7 19 20 22 23 24 25 28 34 39 48 50
b 32 1 7 16 19 20 22 24 25 28 34 39 48
b 33 1 7 16 19 20 22 25 28 34 38
b 34 1 7 8 19 22 28 34 38
b 35 1 7 8 18 19 22 34
b 36 7 8 18 22 34 47
b 37 7 10 15 20 50
1 14
2 30
3 34
4 26
5 25
6 25
7 16
8 9
9 26
10 27
11 18
12 36
13 29
14 15
14 31
14 37
15 16
15 17
15 30
17 18
17 29
18 19
19 20
20 21
20 27
21 22
22 23
23 24
23 26
24 25
27 28
31 32
32 33
33 34
34 35
35 36
